
Log started (V11.0.0) Fri May 16 17:00:30 2008

Tried aggregator 1 time.
Reduced MIP has 250 rows, 10001 columns, and 20050 nonzeros.
Presolve time =    0.08 sec.
Clique table members: 200.
MIP emphasis: balance optimality and feasibility.
MIP search method: dynamic search.
Parallel mode: none, using 1 thread.
Root relaxation solution time =    0.52 sec.

        Nodes                                         Cuts/
   Node  Left     Objective  IInf  Best Integer     Best Node    ItCnt     Gap

*     0+    0                        19400.0000      103.7432      706   99.47%
*     0+    0                          165.0000      103.7432      706   37.13%
      0     0      104.0000    89      165.0000      Fract: 4      735   36.97%
*     0+    0                          156.0000      104.0000      735   33.33%
      0     0      104.0000    91      156.0000       Cuts: 8      785   33.33%
*     0+    0                          145.0000      104.0000      785   28.28%
      0     0      104.4481    94      145.0000      Cuts: 10      931   27.97%
*     0+    0                          136.0000      104.4481      931   23.20%
      0     0      109.3539    76      136.0000      Cuts: 38     1332   19.59%
*     0+    0                          131.0000      109.3539     1332   16.52%
      0     0      109.9761    85      131.0000      Cuts: 17     1388   16.05%
      0     0      110.0916    94      131.0000      Cuts: 11     1448   15.96%
*     0+    0                          130.0000      110.0916     1448   15.31%
      0     0      110.2292    87      130.0000       Cuts: 9     1484   15.21%
      0     0      110.3222    85      130.0000       Cuts: 6     1496   15.14%
*     0+    0                          128.0000      110.3222     1496   13.81%
      0     0      110.4323    91      128.0000       Cuts: 4     1508   13.72%
*     0+    0                          125.0000      110.4323     1508   11.65%
      0     0      110.9098    83      125.0000       Cuts: 6     1533   11.27%
      0     0      111.3038    72      125.0000       Cuts: 4     1603   10.96%
      0     0      111.3038    81      125.0000       Cuts: 6     1625   10.96%
*     0+    0                          123.0000      111.3038     1625    9.51%
*     0+    0                          122.0000      111.3038     1625    8.77%
*     0+    0                          121.0000      111.3038     1625    8.01%
      0     2      111.3038    81      121.0000      111.3038     1625    8.01%
*    60+   58                          120.0000      111.3180     2830    7.24%
    100    92      112.0000    41      120.0000      111.3180     4707    7.24%
    200   170      112.0000    38      120.0000      111.3180     7190    7.24%
    300   251      114.0563    38      120.0000      111.3180     9068    7.24%
    400   326      116.0000    21      120.0000      111.3180    10839    7.24%
    500   385      118.0000    20      120.0000      111.3180    12030    7.24%
*   506+  257                          119.0000      116.4276    13746    2.16%

Clique cuts applied:  1
Cover cuts applied:  45
Mixed integer rounding cuts applied:  27

Solution pool: 14 solutions saved.

MIP - Integer optimal solution:  Objective = 1.1900000000e+002
Solution time =   27.19 sec.  Iterations = 13798  Nodes = 506 (257)


Incumbent solution
Variable Name           Solution Value
Cmax                        119.000000
X_1_40                        1.000000
X_2_41                        1.000000
X_3_43                        1.000000
X_4_34                        1.000000
X_5_38                        1.000000
X_6_10                        1.000000
X_7_49                        1.000000
X_8_43                        1.000000
X_9_40                        1.000000
X_10_42                       1.000000
X_11_40                       1.000000
X_12_34                       1.000000
X_13_38                       1.000000
X_14_22                       1.000000
X_15_40                       1.000000
X_16_49                       1.000000
X_17_49                       1.000000
X_18_36                       1.000000
X_19_13                       1.000000
X_20_4                        1.000000
X_21_4                        1.000000
X_22_41                       1.000000
X_23_49                       1.000000
X_24_10                       1.000000
X_25_43                       1.000000
X_26_20                       1.000000
X_27_31                       1.000000
X_28_49                       1.000000
X_29_6                        1.000000
X_30_6                        1.000000
X_31_43                       1.000000
X_32_40                       1.000000
X_33_49                       1.000000
X_34_40                       1.000000
X_35_49                       1.000000
X_36_49                       1.000000
X_37_29                       1.000000
X_38_7                        1.000000
X_39_49                       1.000000
X_40_40                       1.000000
X_41_12                       1.000000
X_42_49                       1.000000
X_43_43                       1.000000
X_44_43                       1.000000
X_45_17                       1.000000
X_46_27                       1.000000
X_47_26                       1.000000
X_48_34                       1.000000
X_49_40                       1.000000
X_50_33                       1.000000
X_51_40                       1.000000
X_52_43                       1.000000
X_53_21                       1.000000
X_54_49                       1.000000
X_55_25                       1.000000
X_56_49                       1.000000
X_57_34                       1.000000
X_58_40                       1.000000
X_59_40                       1.000000
X_60_40                       1.000000
X_61_49                       1.000000
X_62_31                       1.000000
X_63_50                       1.000000
X_64_49                       1.000000
X_65_31                       1.000000
X_66_39                       1.000000
X_67_38                       1.000000
X_68_40                       1.000000
X_69_18                       1.000000
X_70_49                       1.000000
X_71_29                       1.000000
X_72_24                       1.000000
X_73_6                        1.000000
X_74_3                        1.000000
X_75_13                       1.000000
X_76_49                       1.000000
X_77_3                        1.000000
X_78_27                       1.000000
X_79_20                       1.000000
X_80_27                       1.000000
X_81_43                       1.000000
X_82_1                        1.000000
X_83_49                       1.000000
X_84_39                       1.000000
X_85_49                       1.000000
X_86_40                       1.000000
X_87_44                       1.000000
X_88_17                       1.000000
X_89_9                        1.000000
X_90_16                       1.000000
X_91_45                       1.000000
X_92_3                        1.000000
X_93_43                       1.000000
X_94_45                       1.000000
X_95_18                       1.000000
X_96_17                       1.000000
X_97_49                       1.000000
X_98_20                       1.000000
X_99_43                       1.000000
X_100_49                      1.000000
X_101_43                      1.000000
X_102_11                      1.000000
X_103_45                      1.000000
X_104_45                      1.000000
X_105_41                      1.000000
X_106_13                      1.000000
X_107_34                      1.000000
X_108_45                      1.000000
X_109_30                      1.000000
X_110_41                      1.000000
X_111_49                      1.000000
X_112_37                      1.000000
X_113_43                      1.000000
X_114_49                      1.000000
X_115_43                      1.000000
X_116_2                       1.000000
X_117_46                      1.000000
X_118_43                      1.000000
X_119_31                      1.000000
X_120_43                      1.000000
X_121_43                      1.000000
X_122_19                      1.000000
X_123_15                      1.000000
X_124_28                      1.000000
X_125_9                       1.000000
X_126_43                      1.000000
X_127_34                      1.000000
X_128_47                      1.000000
X_129_32                      1.000000
X_130_45                      1.000000
X_131_40                      1.000000
X_132_40                      1.000000
X_133_43                      1.000000
X_134_43                      1.000000
X_135_26                      1.000000
X_136_40                      1.000000
X_137_1                       1.000000
X_138_49                      1.000000
X_139_11                      1.000000
X_140_17                      1.000000
X_141_43                      1.000000
X_142_34                      1.000000
X_143_36                      1.000000
X_144_43                      1.000000
X_145_43                      1.000000
X_146_40                      1.000000
X_147_9                       1.000000
X_148_34                      1.000000
X_149_14                      1.000000
X_150_17                      1.000000
X_151_43                      1.000000
X_152_31                      1.000000
X_153_43                      1.000000
X_154_41                      1.000000
X_155_3                       1.000000
X_156_34                      1.000000
X_157_23                      1.000000
X_158_49                      1.000000
X_159_49                      1.000000
X_160_5                       1.000000
X_161_8                       1.000000
X_162_31                      1.000000
X_163_43                      1.000000
X_164_49                      1.000000
X_165_49                      1.000000
X_166_48                      1.000000
X_167_42                      1.000000
X_168_40                      1.000000
X_169_20                      1.000000
X_170_14                      1.000000
X_171_48                      1.000000
X_172_31                      1.000000
X_173_43                      1.000000
X_174_43                      1.000000
X_175_45                      1.000000
X_176_7                       1.000000
X_177_46                      1.000000
X_178_43                      1.000000
X_179_49                      1.000000
X_180_4                       1.000000
X_181_43                      1.000000
X_182_45                      1.000000
X_183_33                      1.000000
X_184_45                      1.000000
X_185_49                      1.000000
X_186_49                      1.000000
X_187_46                      1.000000
X_188_49                      1.000000
X_189_42                      1.000000
X_190_45                      1.000000
X_191_13                      1.000000
X_192_40                      1.000000
X_193_49                      1.000000
X_194_49                      1.000000
X_195_45                      1.000000
X_196_35                      1.000000
X_197_34                      1.000000
X_198_43                      1.000000
X_199_34                      1.000000
X_200_43                      1.000000
All other variables in the range 1-10001 are 0.
